p cnf 964 2475
51 -697 -698 0
-51 697 0
-51 698 0
52 -51 -699 0
-52 51 0
-52 699 0
53 -5 -700 0
-53 5 0
-53 700 0
54 -53 -701 0
-54 53 0
-54 701 0
55 -702 -703 0
-55 702 0
-55 703 0
56 -704 -7 0
-56 704 0
-56 7 0
57 -56 -9 0
-57 56 0
-57 9 0
58 -705 -55 0
-58 705 0
-58 55 0
59 -11 -706 0
-59 11 0
-59 706 0
60 -59 -707 0
-60 59 0
-60 707 0
61 -708 -58 0
-61 708 0
-61 58 0
62 -13 -12 0
-62 13 0
-62 12 0
63 -62 -709 0
-63 62 0
-63 709 0
64 -710 -61 0
-64 710 0
-64 61 0
65 -711 -712 0
-65 711 0
-65 712 0
66 -65 -713 0
-66 65 0
-66 713 0
67 -714 -64 0
-67 714 0
-67 64 0
68 -715 -716 0
-68 715 0
-68 716 0
69 -68 -18 0
-69 68 0
-69 18 0
70 -717 -67 0
-70 717 0
-70 67 0
71 -718 -10 0
-71 718 0
-71 10 0
72 -71 -5 0
-72 71 0
-72 5 0
73 -719 -70 0
-73 719 0
-73 70 0
74 -720 -712 0
-74 720 0
-74 712 0
75 -74 -709 0
-75 74 0
-75 709 0
76 -721 -73 0
-76 721 0
-76 73 0
77 -722 -723 0
-77 722 0
-77 723 0
78 -77 -724 0
-78 77 0
-78 724 0
79 -725 -76 0
-79 725 0
-79 76 0
80 -23 -11 0
-80 23 0
-80 11 0
81 -80 -726 0
-81 80 0
-81 726 0
82 -727 -79 0
-82 727 0
-82 79 0
83 -728 -16 0
-83 728 0
-83 16 0
84 -83 -729 0
-84 83 0
-84 729 0
85 -730 -82 0
-85 730 0
-85 82 0
86 -28 -27 0
-86 28 0
-86 27 0
87 -86 -13 0
-87 86 0
-87 13 0
88 -731 -85 0
-88 731 0
-88 85 0
89 -29 -19 0
-89 29 0
-89 19 0
90 -89 -732 0
-90 89 0
-90 732 0
91 -733 -88 0
-91 733 0
-91 88 0
92 -31 -20 0
-92 31 0
-92 20 0
93 -92 -32 0
-93 92 0
-93 32 0
94 -734 -91 0
-94 734 0
-94 91 0
95 -735 -14 0
-95 735 0
-95 14 0
96 -95 -706 0
-96 95 0
-96 706 0
97 -736 -94 0
-97 736 0
-97 94 0
98 -737 -720 0
-98 737 0
-98 720 0
99 -98 -726 0
-99 98 0
-99 726 0
100 -738 -97 0
-100 738 0
-100 97 0
101 -35 -735 0
-101 35 0
-101 735 0
102 -101 -722 0
-102 101 0
-102 722 0
103 -739 -100 0
-103 739 0
-103 100 0
104 -740 -720 0
-104 740 0
-104 720 0
105 -104 -715 0
-105 104 0
-105 715 0
106 -741 -103 0
-106 741 0
-106 103 0
107 -742 -2 0
-107 742 0
-107 2 0
108 -107 -38 0
-108 107 0
-108 38 0
109 -743 -106 0
-109 743 0
-109 106 0
110 -36 -744 0
-110 36 0
-110 744 0
111 -110 -735 0
-111 110 0
-111 735 0
112 -745 -109 0
-112 745 0
-112 109 0
113 -16 -713 0
-113 16 0
-113 713 0
114 -113 -700 0
-114 113 0
-114 700 0
115 -746 -112 0
-115 746 0
-115 112 0
116 -21 -12 0
-116 21 0
-116 12 0
117 -116 -39 0
-117 116 0
-117 39 0
118 -747 -115 0
-118 747 0
-118 115 0
119 -748 -31 0
-119 748 0
-119 31 0
120 -119 -24 0
-120 119 0
-120 24 0
121 -749 -118 0
-121 749 0
-121 118 0
122 -737 -697 0
-122 737 0
-122 697 0
123 -122 -41 0
-123 122 0
-123 41 0
124 -750 -121 0
-124 750 0
-124 121 0
125 -43 -751 0
-125 43 0
-125 751 0
126 -125 -8 0
-126 125 0
-126 8 0
127 -752 -124 0
-127 752 0
-127 124 0
128 -44 -713 0
-128 44 0
-128 713 0
129 -128 -715 0
-129 128 0
-129 715 0
130 -753 -127 0
-130 753 0
-130 127 0
131 -713 -704 0
-131 713 0
-131 704 0
132 -131 -754 0
-132 131 0
-132 754 0
133 -755 -130 0
-133 755 0
-133 130 0
134 -756 -27 0
-134 756 0
-134 27 0
135 -134 -1 0
-135 134 0
-135 1 0
136 -757 -133 0
-136 757 0
-136 133 0
137 -33 -19 0
-137 33 0
-137 19 0
138 -137 -35 0
-138 137 0
-138 35 0
139 -758 -136 0
-139 758 0
-139 136 0
140 -45 -759 0
-140 45 0
-140 759 0
141 -140 -707 0
-141 140 0
-141 707 0
142 -760 -139 0
-142 760 0
-142 139 0
143 -715 -697 0
-143 715 0
-143 697 0
144 -143 -726 0
-144 143 0
-144 726 0
145 -761 -142 0
-145 761 0
-145 142 0
146 -751 -7 0
-146 751 0
-146 7 0
147 -146 -18 0
-147 146 0
-147 18 0
148 -762 -145 0
-148 762 0
-148 145 0
149 -763 -764 0
-149 763 0
-149 764 0
150 -149 -754 0
-150 149 0
-150 754 0
151 -765 -148 0
-151 765 0
-151 148 0
152 -23 -1 0
-152 23 0
-152 1 0
153 -152 -722 0
-153 152 0
-153 722 0
154 -766 -151 0
-154 766 0
-154 151 0
155 -37 -2 0
-155 37 0
-155 2 0
156 -155 -716 0
-156 155 0
-156 716 0
157 -767 -154 0
-157 767 0
-157 154 0
158 -711 -723 0
-158 711 0
-158 723 0
159 -158 -716 0
-159 158 0
-159 716 0
160 -768 -157 0
-160 768 0
-160 157 0
161 -27 -21 0
-161 27 0
-161 21 0
162 -161 -728 0
-162 161 0
-162 728 0
163 -769 -160 0
-163 769 0
-163 160 0
164 -35 -712 0
-164 35 0
-164 712 0
165 -164 -46 0
-165 164 0
-165 46 0
166 -770 -163 0
-166 770 0
-166 163 0
167 -19 -5 0
-167 19 0
-167 5 0
168 -167 -9 0
-168 167 0
-168 9 0
169 -771 -166 0
-169 771 0
-169 166 0
170 -22 -715 0
-170 22 0
-170 715 0
171 -170 -772 0
-171 170 0
-171 772 0
172 -773 -169 0
-172 773 0
-172 169 0
173 -737 -711 0
-173 737 0
-173 711 0
174 -173 -774 0
-174 173 0
-174 774 0
175 -775 -172 0
-175 775 0
-175 172 0
176 -776 -706 0
-176 776 0
-176 706 0
177 -176 -729 0
-177 176 0
-177 729 0
178 -777 -175 0
-178 777 0
-178 175 0
179 -15 -13 0
-179 15 0
-179 13 0
180 -179 -774 0
-180 179 0
-180 774 0
181 -778 -178 0
-181 778 0
-181 178 0
182 -13 -2 0
-182 13 0
-182 2 0
183 -182 -715 0
-183 182 0
-183 715 0
184 -779 -181 0
-184 779 0
-184 181 0
185 -780 -3 0
-185 780 0
-185 3 0
186 -185 -47 0
-186 185 0
-186 47 0
187 -781 -184 0
-187 781 0
-187 184 0
188 -46 -782 0
-188 46 0
-188 782 0
189 -188 -701 0
-189 188 0
-189 701 0
190 -783 -187 0
-190 783 0
-190 187 0
191 -744 -697 0
-191 744 0
-191 697 0
192 -191 -25 0
-192 191 0
-192 25 0
193 -784 -190 0
-193 784 0
-193 190 0
194 -33 -776 0
-194 33 0
-194 776 0
195 -194 -715 0
-195 194 0
-195 715 0
196 -785 -193 0
-196 785 0
-196 193 0
197 -713 -1 0
-197 713 0
-197 1 0
198 -197 -786 0
-198 197 0
-198 786 0
199 -787 -196 0
-199 787 0
-199 196 0
200 -44 -34 0
-200 44 0
-200 34 0
201 -200 -30 0
-201 200 0
-201 30 0
202 -788 -199 0
-202 788 0
-202 199 0
203 -711 -14 0
-203 711 0
-203 14 0
204 -203 -776 0
-204 203 0
-204 776 0
205 -789 -202 0
-205 789 0
-205 202 0
206 -780 -740 0
-206 780 0
-206 740 0
207 -206 -21 0
-207 206 0
-207 21 0
208 -790 -205 0
-208 790 0
-208 205 0
209 -26 -15 0
-209 26 0
-209 15 0
210 -209 -39 0
-210 209 0
-210 39 0
211 -791 -208 0
-211 791 0
-211 208 0
212 -792 -20 0
-212 792 0
-212 20 0
213 -212 -39 0
-213 212 0
-213 39 0
214 -793 -211 0
-214 793 0
-214 211 0
215 -794 -12 0
-215 794 0
-215 12 0
216 -215 -748 0
-216 215 0
-216 748 0
217 -795 -214 0
-217 795 0
-217 214 0
218 -780 -748 0
-218 780 0
-218 748 0
219 -218 -700 0
-219 218 0
-219 700 0
220 -796 -217 0
-220 796 0
-220 217 0
221 -40 -1 0
-221 40 0
-221 1 0
222 -221 -772 0
-222 221 0
-222 772 0
223 -797 -220 0
-223 797 0
-223 220 0
224 -786 -718 0
-224 786 0
-224 718 0
225 -224 -728 0
-225 224 0
-225 728 0
226 -798 -223 0
-226 798 0
-226 223 0
227 -740 -28 0
-227 740 0
-227 28 0
228 -227 -700 0
-228 227 0
-228 700 0
229 -799 -226 0
-229 799 0
-229 226 0
230 -43 -31 0
-230 43 0
-230 31 0
231 -230 -35 0
-231 230 0
-231 35 0
232 -800 -229 0
-232 800 0
-232 229 0
233 -31 -11 0
-233 31 0
-233 11 0
234 -233 -25 0
-234 233 0
-234 25 0
235 -801 -232 0
-235 801 0
-235 232 0
236 -46 -802 0
-236 46 0
-236 802 0
237 -236 -21 0
-237 236 0
-237 21 0
238 -803 -235 0
-238 803 0
-238 235 0
239 -19 -804 0
-239 19 0
-239 804 0
240 -239 -724 0
-240 239 0
-240 724 0
241 -805 -238 0
-241 805 0
-241 238 0
242 -735 -804 0
-242 735 0
-242 804 0
243 -242 -35 0
-243 242 0
-243 35 0
244 -806 -241 0
-244 806 0
-244 241 0
245 -50 -699 0
-245 50 0
-245 699 0
246 -245 -47 0
-246 245 0
-246 47 0
247 -807 -244 0
-247 807 0
-247 244 0
248 -726 -699 0
-248 726 0
-248 699 0
249 -248 -38 0
-249 248 0
-249 38 0
250 -808 -247 0
-250 808 0
-250 247 0
251 -29 -12 0
-251 29 0
-251 12 0
252 -251 -804 0
-252 251 0
-252 804 0
253 -809 -250 0
-253 809 0
-253 250 0
254 -751 -13 0
-254 751 0
-254 13 0
255 -254 -782 0
-255 254 0
-255 782 0
256 -810 -253 0
-256 810 0
-256 253 0
257 -780 -1 0
-257 780 0
-257 1 0
258 -257 -3 0
-258 257 0
-258 3 0
259 -811 -256 0
-259 811 0
-259 256 0
260 -48 -763 0
-260 48 0
-260 763 0
261 -260 -722 0
-261 260 0
-261 722 0
262 -812 -259 0
-262 812 0
-262 259 0
263 -748 -707 0
-263 748 0
-263 707 0
264 -263 -813 0
-264 263 0
-264 813 0
265 -814 -262 0
-265 814 0
-265 262 0
266 -43 -697 0
-266 43 0
-266 697 0
267 -266 -46 0
-267 266 0
-267 46 0
268 -815 -265 0
-268 815 0
-268 265 0
269 -48 -10 0
-269 48 0
-269 10 0
270 -269 -45 0
-270 269 0
-270 45 0
271 -816 -268 0
-271 816 0
-271 268 0
272 -49 -4 0
-272 49 0
-272 4 0
273 -272 -754 0
-273 272 0
-273 754 0
274 -817 -271 0
-274 817 0
-274 271 0
275 -740 -32 0
-275 740 0
-275 32 0
276 -275 -754 0
-276 275 0
-276 754 0
277 -818 -274 0
-277 818 0
-277 274 0
278 -28 -1 0
-278 28 0
-278 1 0
279 -278 -748 0
-279 278 0
-279 748 0
280 -819 -277 0
-280 819 0
-280 277 0
281 -24 -718 0
-281 24 0
-281 718 0
282 -281 -772 0
-282 281 0
-282 772 0
283 -820 -280 0
-283 820 0
-283 280 0
284 -10 -1 0
-284 10 0
-284 1 0
285 -284 -38 0
-285 284 0
-285 38 0
286 -821 -283 0
-286 821 0
-286 283 0
287 -42 -772 0
-287 42 0
-287 772 0
288 -287 -18 0
-288 287 0
-288 18 0
289 -822 -286 0
-289 822 0
-289 286 0
290 -756 -729 0
-290 756 0
-290 729 0
291 -290 -813 0
-291 290 0
-291 813 0
292 -823 -289 0
-292 823 0
-292 289 0
293 -284 -729 0
-293 284 0
-293 729 0
294 -824 -292 0
-294 824 0
-294 292 0
295 -37 -11 0
-295 37 0
-295 11 0
296 -295 -24 0
-296 295 0
-296 24 0
297 -825 -294 0
-297 825 0
-297 294 0
298 -704 -4 0
-298 704 0
-298 4 0
299 -298 -18 0
-299 298 0
-299 18 0
300 -826 -297 0
-300 826 0
-300 297 0
301 -728 -5 0
-301 728 0
-301 5 0
302 -301 -707 0
-302 301 0
-302 707 0
303 -827 -300 0
-303 827 0
-303 300 0
304 -23 -12 0
-304 23 0
-304 12 0
305 -304 -732 0
-305 304 0
-305 732 0
306 -828 -303 0
-306 828 0
-306 303 0
307 -35 -17 0
-307 35 0
-307 17 0
308 -307 -772 0
-308 307 0
-308 772 0
309 -829 -306 0
-309 829 0
-309 306 0
310 -20 -700 0
-310 20 0
-310 700 0
311 -310 -709 0
-311 310 0
-311 709 0
312 -830 -309 0
-312 830 0
-312 309 0
313 -748 -5 0
-313 748 0
-313 5 0
314 -313 -754 0
-314 313 0
-314 754 0
315 -831 -312 0
-315 831 0
-315 312 0
316 -15 -2 0
-316 15 0
-316 2 0
317 -316 -26 0
-317 316 0
-317 26 0
318 -832 -315 0
-318 832 0
-318 315 0
319 -46 -37 0
-319 46 0
-319 37 0
320 -319 -715 0
-320 319 0
-320 715 0
321 -833 -318 0
-321 833 0
-321 318 0
322 -780 -7 0
-322 780 0
-322 7 0
323 -322 -722 0
-323 322 0
-323 722 0
324 -834 -321 0
-324 834 0
-324 321 0
325 -290 -709 0
-325 290 0
-325 709 0
326 -835 -324 0
-326 835 0
-326 324 0
327 -792 -28 0
-327 792 0
-327 28 0
328 -327 -836 0
-328 327 0
-328 836 0
329 -837 -326 0
-329 837 0
-329 326 0
330 -774 -16 0
-330 774 0
-330 16 0
331 -330 -6 0
-331 330 0
-331 6 0
332 -838 -329 0
-332 838 0
-332 329 0
333 -740 -1 0
-333 740 0
-333 1 0
334 -333 -701 0
-334 333 0
-334 701 0
335 -839 -332 0
-335 839 0
-335 332 0
336 -310 -772 0
-336 310 0
-336 772 0
337 -840 -335 0
-337 840 0
-337 335 0
338 -49 -43 0
-338 49 0
-338 43 0
339 -338 -44 0
-339 338 0
-339 44 0
340 -841 -337 0
-340 841 0
-340 337 0
341 -712 -723 0
-341 712 0
-341 723 0
342 -341 -6 0
-342 341 0
-342 6 0
343 -842 -340 0
-343 842 0
-343 340 0
344 -28 -13 0
-344 28 0
-344 13 0
345 -344 -704 0
-345 344 0
-345 704 0
346 -843 -343 0
-346 843 0
-346 343 0
347 -29 -3 0
-347 29 0
-347 3 0
348 -347 -41 0
-348 347 0
-348 41 0
349 -844 -346 0
-349 844 0
-349 346 0
350 -41 -37 0
-350 41 0
-350 37 0
351 -350 -18 0
-351 350 0
-351 18 0
352 -845 -349 0
-352 845 0
-352 349 0
353 -751 -846 0
-353 751 0
-353 846 0
354 -353 -9 0
-354 353 0
-354 9 0
355 -847 -352 0
-355 847 0
-355 352 0
356 -792 -732 0
-356 792 0
-356 732 0
357 -356 -6 0
-357 356 0
-357 6 0
358 -848 -355 0
-358 848 0
-358 355 0
359 -37 -10 0
-359 37 0
-359 10 0
360 -359 -46 0
-360 359 0
-360 46 0
361 -849 -358 0
-361 849 0
-361 358 0
362 -763 -802 0
-362 763 0
-362 802 0
363 -362 -34 0
-363 362 0
-363 34 0
364 -850 -361 0
-364 850 0
-364 361 0
365 -744 -12 0
-365 744 0
-365 12 0
366 -365 -716 0
-366 365 0
-366 716 0
367 -851 -364 0
-367 851 0
-367 364 0
368 -792 -713 0
-368 792 0
-368 713 0
369 -368 -22 0
-369 368 0
-369 22 0
370 -852 -367 0
-370 852 0
-370 367 0
371 -740 -723 0
-371 740 0
-371 723 0
372 -371 -697 0
-372 371 0
-372 697 0
373 -853 -370 0
-373 853 0
-373 370 0
374 -722 -712 0
-374 722 0
-374 712 0
375 -374 -25 0
-375 374 0
-375 25 0
376 -854 -373 0
-376 854 0
-376 373 0
377 -792 -12 0
-377 792 0
-377 12 0
378 -377 -729 0
-378 377 0
-378 729 0
379 -855 -376 0
-379 855 0
-379 376 0
380 -42 -1 0
-380 42 0
-380 1 0
381 -380 -44 0
-381 380 0
-381 44 0
382 -856 -379 0
-382 856 0
-382 379 0
383 -772 -22 0
-383 772 0
-383 22 0
384 -383 -754 0
-384 383 0
-384 754 0
385 -857 -382 0
-385 857 0
-385 382 0
386 -11 -804 0
-386 11 0
-386 804 0
387 -386 -22 0
-387 386 0
-387 22 0
388 -858 -385 0
-388 858 0
-388 385 0
389 -46 -716 0
-389 46 0
-389 716 0
390 -389 -732 0
-390 389 0
-390 732 0
391 -859 -388 0
-391 859 0
-391 388 0
392 -3 -1 0
-392 3 0
-392 1 0
393 -392 -724 0
-393 392 0
-393 724 0
394 -860 -391 0
-394 860 0
-394 391 0
395 -763 -27 0
-395 763 0
-395 27 0
396 -395 -709 0
-396 395 0
-396 709 0
397 -861 -394 0
-397 861 0
-397 394 0
398 -36 -698 0
-398 36 0
-398 698 0
399 -398 -34 0
-399 398 0
-399 34 0
400 -862 -397 0
-400 862 0
-400 397 0
401 -786 -863 0
-401 786 0
-401 863 0
402 -401 -30 0
-402 401 0
-402 30 0
403 -864 -400 0
-403 864 0
-403 400 0
404 -49 -21 0
-404 49 0
-404 21 0
405 -404 -25 0
-405 404 0
-405 25 0
406 -865 -403 0
-406 865 0
-406 403 0
407 -780 -29 0
-407 780 0
-407 29 0
408 -407 -782 0
-408 407 0
-408 782 0
409 -866 -406 0
-409 866 0
-409 406 0
410 -50 -12 0
-410 50 0
-410 12 0
411 -410 -45 0
-411 410 0
-411 45 0
412 -867 -409 0
-412 867 0
-412 409 0
413 -802 -868 0
-413 802 0
-413 868 0
414 -413 -6 0
-414 413 0
-414 6 0
415 -869 -412 0
-415 869 0
-415 412 0
416 -711 -13 0
-416 711 0
-416 13 0
417 -416 -40 0
-417 416 0
-417 40 0
418 -870 -415 0
-418 870 0
-418 415 0
419 -7 -2 0
-419 7 0
-419 2 0
420 -419 -786 0
-420 419 0
-420 786 0
421 -871 -418 0
-421 871 0
-421 418 0
422 -836 -23 0
-422 836 0
-422 23 0
423 -422 -9 0
-423 422 0
-423 9 0
424 -872 -421 0
-424 872 0
-424 421 0
425 -31 -713 0
-425 31 0
-425 713 0
426 -425 -39 0
-426 425 0
-426 39 0
427 -873 -424 0
-427 873 0
-427 424 0
428 -744 -15 0
-428 744 0
-428 15 0
429 -428 -748 0
-429 428 0
-429 748 0
430 -874 -427 0
-430 874 0
-430 427 0
431 -28 -724 0
-431 28 0
-431 724 0
432 -431 -701 0
-432 431 0
-432 701 0
433 -875 -430 0
-433 875 0
-433 430 0
434 -836 -776 0
-434 836 0
-434 776 0
435 -434 -8 0
-435 434 0
-435 8 0
436 -876 -433 0
-436 876 0
-436 433 0
437 -718 -14 0
-437 718 0
-437 14 0
438 -437 -700 0
-438 437 0
-438 700 0
439 -877 -436 0
-439 877 0
-439 436 0
440 -751 -868 0
-440 751 0
-440 868 0
441 -440 -20 0
-441 440 0
-441 20 0
442 -878 -439 0
-442 878 0
-442 439 0
443 -42 -25 0
-443 42 0
-443 25 0
444 -443 -732 0
-444 443 0
-444 732 0
445 -879 -442 0
-445 879 0
-445 442 0
446 -794 -32 0
-446 794 0
-446 32 0
447 -446 -6 0
-447 446 0
-447 6 0
448 -880 -445 0
-448 880 0
-448 445 0
449 -31 -7 0
-449 31 0
-449 7 0
450 -449 -704 0
-450 449 0
-450 704 0
451 -881 -448 0
-451 881 0
-451 448 0
452 -763 -863 0
-452 763 0
-452 863 0
453 -452 -39 0
-453 452 0
-453 39 0
454 -882 -451 0
-454 882 0
-454 451 0
455 -21 -19 0
-455 21 0
-455 19 0
456 -455 -813 0
-456 455 0
-456 813 0
457 -883 -454 0
-457 883 0
-457 454 0
458 -780 -718 0
-458 780 0
-458 718 0
459 -458 -41 0
-459 458 0
-459 41 0
460 -884 -457 0
-460 884 0
-460 457 0
461 -44 -15 0
-461 44 0
-461 15 0
462 -461 -782 0
-462 461 0
-462 782 0
463 -885 -460 0
-463 885 0
-463 460 0
464 -780 -15 0
-464 780 0
-464 15 0
465 -464 -47 0
-465 464 0
-465 47 0
466 -886 -463 0
-466 886 0
-466 463 0
467 -774 -4 0
-467 774 0
-467 4 0
468 -467 -754 0
-468 467 0
-468 754 0
469 -887 -466 0
-469 887 0
-469 466 0
470 -776 -782 0
-470 776 0
-470 782 0
471 -470 -24 0
-471 470 0
-471 24 0
472 -888 -469 0
-472 888 0
-472 469 0
473 -776 -715 0
-473 776 0
-473 715 0
474 -473 -40 0
-474 473 0
-474 40 0
475 -889 -472 0
-475 889 0
-475 472 0
476 -780 -756 0
-476 780 0
-476 756 0
477 -476 -38 0
-477 476 0
-477 38 0
478 -890 -475 0
-478 890 0
-478 475 0
479 -756 -723 0
-479 756 0
-479 723 0
480 -479 -751 0
-480 479 0
-480 751 0
481 -891 -478 0
-481 891 0
-481 478 0
482 -14 -697 0
-482 14 0
-482 697 0
483 -482 -38 0
-483 482 0
-483 38 0
484 -892 -481 0
-484 892 0
-484 481 0
485 -792 -36 0
-485 792 0
-485 36 0
486 -485 -5 0
-486 485 0
-486 5 0
487 -893 -484 0
-487 893 0
-487 484 0
488 -863 -712 0
-488 863 0
-488 712 0
489 -488 -1 0
-489 488 0
-489 1 0
490 -894 -487 0
-490 894 0
-490 487 0
491 -50 -2 0
-491 50 0
-491 2 0
492 -491 -780 0
-492 491 0
-492 780 0
493 -895 -490 0
-493 895 0
-493 490 0
494 -772 -14 0
-494 772 0
-494 14 0
495 -494 -754 0
-495 494 0
-495 754 0
496 -896 -493 0
-496 896 0
-496 493 0
497 -772 -716 0
-497 772 0
-497 716 0
498 -497 -6 0
-498 497 0
-498 6 0
499 -897 -496 0
-499 897 0
-499 496 0
500 -751 -10 0
-500 751 0
-500 10 0
501 -500 -704 0
-501 500 0
-501 704 0
502 -898 -499 0
-502 898 0
-502 499 0
503 -756 -712 0
-503 756 0
-503 712 0
504 -503 -34 0
-504 503 0
-504 34 0
505 -899 -502 0
-505 899 0
-505 502 0
506 -792 -720 0
-506 792 0
-506 720 0
507 -506 -715 0
-507 506 0
-507 715 0
508 -900 -505 0
-508 900 0
-508 505 0
509 -488 -35 0
-509 488 0
-509 35 0
510 -901 -508 0
-510 901 0
-510 508 0
511 -29 -15 0
-511 29 0
-511 15 0
512 -511 -47 0
-512 511 0
-512 47 0
513 -902 -510 0
-513 902 0
-513 510 0
514 -713 -723 0
-514 713 0
-514 723 0
515 -514 -16 0
-515 514 0
-515 16 0
516 -903 -513 0
-516 903 0
-516 513 0
517 -47 -33 0
-517 47 0
-517 33 0
518 -517 -18 0
-518 517 0
-518 18 0
519 -904 -516 0
-519 904 0
-519 516 0
520 -748 -744 0
-520 748 0
-520 744 0
521 -520 -846 0
-521 520 0
-521 846 0
522 -905 -519 0
-522 905 0
-522 519 0
523 -718 -8 0
-523 718 0
-523 8 0
524 -523 -699 0
-524 523 0
-524 699 0
525 -906 -522 0
-525 906 0
-525 522 0
526 -802 -697 0
-526 802 0
-526 697 0
527 -526 -34 0
-527 526 0
-527 34 0
528 -907 -525 0
-528 907 0
-528 525 0
529 -754 -22 0
-529 754 0
-529 22 0
530 -529 -813 0
-530 529 0
-530 813 0
531 -908 -528 0
-531 908 0
-531 528 0
532 -756 -13 0
-532 756 0
-532 13 0
533 -532 -751 0
-533 532 0
-533 751 0
534 -909 -531 0
-534 909 0
-534 531 0
535 -740 -13 0
-535 740 0
-535 13 0
536 -535 -3 0
-536 535 0
-536 3 0
537 -910 -534 0
-537 910 0
-537 534 0
538 -239 -774 0
-538 239 0
-538 774 0
539 -911 -537 0
-539 911 0
-539 537 0
540 -764 -722 0
-540 764 0
-540 722 0
541 -540 -732 0
-541 540 0
-541 732 0
542 -912 -539 0
-542 912 0
-542 539 0
543 -711 -2 0
-543 711 0
-543 2 0
544 -543 -707 0
-544 543 0
-544 707 0
545 -913 -542 0
-545 913 0
-545 542 0
546 -43 -4 0
-546 43 0
-546 4 0
547 -546 -26 0
-547 546 0
-547 26 0
548 -914 -545 0
-548 914 0
-548 545 0
549 -726 -697 0
-549 726 0
-549 697 0
550 -549 -701 0
-550 549 0
-550 701 0
551 -915 -548 0
-551 915 0
-551 548 0
552 -723 -759 0
-552 723 0
-552 759 0
553 -552 -47 0
-553 552 0
-553 47 0
554 -916 -551 0
-554 916 0
-554 551 0
555 -792 -15 0
-555 792 0
-555 15 0
556 -555 -754 0
-556 555 0
-556 754 0
557 -917 -554 0
-557 917 0
-557 554 0
558 -50 -756 0
-558 50 0
-558 756 0
559 -558 -16 0
-559 558 0
-559 16 0
560 -918 -557 0
-560 918 0
-560 557 0
561 -794 -751 0
-561 794 0
-561 751 0
562 -561 -728 0
-562 561 0
-562 728 0
563 -919 -560 0
-563 919 0
-563 560 0
564 -836 -48 0
-564 836 0
-564 48 0
565 -564 -700 0
-565 564 0
-565 700 0
566 -920 -563 0
-566 920 0
-566 563 0
567 -868 -7 0
-567 868 0
-567 7 0
568 -567 -47 0
-568 567 0
-568 47 0
569 -921 -566 0
-569 921 0
-569 566 0
570 -751 -39 0
-570 751 0
-570 39 0
571 -570 -45 0
-571 570 0
-571 45 0
572 -922 -569 0
-572 922 0
-572 569 0
573 -50 -792 0
-573 50 0
-573 792 0
574 -573 -782 0
-574 573 0
-574 782 0
575 -923 -572 0
-575 923 0
-575 572 0
576 -786 -14 0
-576 786 0
-576 14 0
577 -576 -11 0
-577 576 0
-577 11 0
578 -924 -575 0
-578 924 0
-578 575 0
579 -44 -720 0
-579 44 0
-579 720 0
580 -579 -846 0
-580 579 0
-580 846 0
581 -925 -578 0
-581 925 0
-581 578 0
582 -48 -722 0
-582 48 0
-582 722 0
583 -582 -724 0
-583 582 0
-583 724 0
584 -926 -581 0
-584 926 0
-584 581 0
585 -718 -716 0
-585 718 0
-585 716 0
586 -585 -726 0
-586 585 0
-586 726 0
587 -927 -584 0
-587 927 0
-587 584 0
588 -46 -756 0
-588 46 0
-588 756 0
589 -588 -722 0
-589 588 0
-589 722 0
590 -928 -587 0
-590 928 0
-590 587 0
591 -34 -720 0
-591 34 0
-591 720 0
592 -591 -40 0
-592 591 0
-592 40 0
593 -929 -590 0
-593 929 0
-593 590 0
594 -713 -697 0
-594 713 0
-594 697 0
595 -594 -20 0
-595 594 0
-595 20 0
596 -930 -593 0
-596 930 0
-596 593 0
597 -794 -11 0
-597 794 0
-597 11 0
598 -597 -772 0
-598 597 0
-598 772 0
599 -931 -596 0
-599 931 0
-599 596 0
600 -48 -759 0
-600 48 0
-600 759 0
601 -600 -22 0
-601 600 0
-601 22 0
602 -932 -599 0
-602 932 0
-602 599 0
603 -868 -20 0
-603 868 0
-603 20 0
604 -603 -48 0
-604 603 0
-604 48 0
605 -933 -602 0
-605 933 0
-605 602 0
606 -12 -706 0
-606 12 0
-606 706 0
607 -606 -709 0
-607 606 0
-607 709 0
608 -934 -605 0
-608 934 0
-608 605 0
609 -416 -10 0
-609 416 0
-609 10 0
610 -935 -608 0
-610 935 0
-610 608 0
611 -763 -11 0
-611 763 0
-611 11 0
612 -611 -38 0
-612 611 0
-612 38 0
613 -936 -610 0
-613 936 0
-613 610 0
614 -31 -19 0
-614 31 0
-614 19 0
615 -614 -763 0
-615 614 0
-615 763 0
616 -937 -613 0
-616 937 0
-616 613 0
617 -756 -20 0
-617 756 0
-617 20 0
618 -617 -737 0
-618 617 0
-618 737 0
619 -938 -616 0
-619 938 0
-619 616 0
620 -37 -740 0
-620 37 0
-620 740 0
621 -620 -704 0
-621 620 0
-621 704 0
622 -939 -619 0
-622 939 0
-622 619 0
623 -333 -704 0
-623 333 0
-623 704 0
624 -940 -622 0
-624 940 0
-624 622 0
625 -836 -33 0
-625 836 0
-625 33 0
626 -625 -25 0
-626 625 0
-626 25 0
627 -941 -624 0
-627 941 0
-627 624 0
628 -715 -699 0
-628 715 0
-628 699 0
629 -628 -9 0
-629 628 0
-629 9 0
630 -942 -627 0
-630 942 0
-630 627 0
631 -737 -23 0
-631 737 0
-631 23 0
632 -631 -9 0
-632 631 0
-632 9 0
633 -943 -630 0
-633 943 0
-633 630 0
634 -780 -706 0
-634 780 0
-634 706 0
635 -634 -774 0
-635 634 0
-635 774 0
636 -944 -633 0
-636 944 0
-636 633 0
637 -16 -704 0
-637 16 0
-637 704 0
638 -637 -46 0
-638 637 0
-638 46 0
639 -945 -636 0
-639 945 0
-639 636 0
640 -742 -33 0
-640 742 0
-640 33 0
641 -640 -802 0
-641 640 0
-641 802 0
642 -946 -639 0
-642 946 0
-642 639 0
643 -49 -13 0
-643 49 0
-643 13 0
644 -643 -846 0
-644 643 0
-644 846 0
645 -947 -642 0
-645 947 0
-645 642 0
646 -863 -26 0
-646 863 0
-646 26 0
647 -646 -39 0
-647 646 0
-647 39 0
648 -948 -645 0
-648 948 0
-648 645 0
649 -780 -726 0
-649 780 0
-649 726 0
650 -649 -701 0
-650 649 0
-650 701 0
651 -949 -648 0
-651 949 0
-651 648 0
652 -704 -709 0
-652 704 0
-652 709 0
653 -652 -9 0
-653 652 0
-653 9 0
654 -950 -651 0
-654 950 0
-654 651 0
655 -48 -744 0
-655 48 0
-655 744 0
656 -655 -44 0
-656 655 0
-656 44 0
657 -951 -654 0
-657 951 0
-657 654 0
658 -34 -22 0
-658 34 0
-658 22 0
659 -658 -700 0
-659 658 0
-659 700 0
660 -952 -657 0
-660 952 0
-660 657 0
661 -44 -43 0
-661 44 0
-661 43 0
662 -661 -729 0
-662 661 0
-662 729 0
663 -953 -660 0
-663 953 0
-663 660 0
664 -22 -700 0
-664 22 0
-664 700 0
665 -664 -732 0
-665 664 0
-665 732 0
666 -954 -663 0
-666 954 0
-666 663 0
667 -742 -27 0
-667 742 0
-667 27 0
668 -667 -10 0
-668 667 0
-668 10 0
669 -955 -666 0
-669 955 0
-669 666 0
670 -37 -28 0
-670 37 0
-670 28 0
671 -670 -699 0
-671 670 0
-671 699 0
672 -956 -669 0
-672 956 0
-672 669 0
673 -33 -15 0
-673 33 0
-673 15 0
674 -673 -46 0
-674 673 0
-674 46 0
675 -957 -672 0
-675 957 0
-675 672 0
676 -16 -698 0
-676 16 0
-676 698 0
677 -676 -20 0
-677 676 0
-677 20 0
678 -958 -675 0
-678 958 0
-678 675 0
679 -742 -8 0
-679 742 0
-679 8 0
680 -679 -700 0
-680 679 0
-680 700 0
681 -959 -678 0
-681 959 0
-681 678 0
682 -20 -16 0
-682 20 0
-682 16 0
683 -682 -39 0
-683 682 0
-683 39 0
684 -960 -681 0
-684 960 0
-684 681 0
685 -46 -15 0
-685 46 0
-685 15 0
686 -685 -772 0
-686 685 0
-686 772 0
687 -961 -684 0
-687 961 0
-687 684 0
688 -40 -25 0
-688 40 0
-688 25 0
689 -688 -774 0
-689 688 0
-689 774 0
690 -962 -687 0
-690 962 0
-690 687 0
691 -29 -4 0
-691 29 0
-691 4 0
692 -691 -846 0
-692 691 0
-692 846 0
693 -963 -690 0
-693 963 0
-693 690 0
694 -863 -12 0
-694 863 0
-694 12 0
695 -694 -728 0
-695 694 0
-695 728 0
696 -964 -693 0
-696 964 0
-696 693 0
-697 -2 0
697 2 0
-698 -1 0
698 1 0
-699 -3 0
699 3 0
-700 -4 0
700 4 0
-701 -6 0
701 6 0
-702 -54 0
702 54 0
-703 -52 0
703 52 0
-704 -8 0
704 8 0
-705 -57 0
705 57 0
-706 -10 0
706 10 0
-707 -9 0
707 9 0
-708 -60 0
708 60 0
-709 -5 0
709 5 0
-710 -63 0
710 63 0
-711 -15 0
711 15 0
-712 -14 0
712 14 0
-713 -13 0
713 13 0
-714 -66 0
714 66 0
-715 -17 0
715 17 0
-716 -16 0
716 16 0
-717 -69 0
717 69 0
-718 -19 0
718 19 0
-719 -72 0
719 72 0
-720 -20 0
720 20 0
-721 -75 0
721 75 0
-722 -21 0
722 21 0
-723 -12 0
723 12 0
-724 -22 0
724 22 0
-725 -78 0
725 78 0
-726 -24 0
726 24 0
-727 -81 0
727 81 0
-728 -25 0
728 25 0
-729 -26 0
729 26 0
-730 -84 0
730 84 0
-731 -87 0
731 87 0
-732 -30 0
732 30 0
-733 -90 0
733 90 0
-734 -93 0
734 93 0
-735 -33 0
735 33 0
-736 -96 0
736 96 0
-737 -34 0
737 34 0
-738 -99 0
738 99 0
-739 -102 0
739 102 0
-740 -36 0
740 36 0
-741 -105 0
741 105 0
-742 -37 0
742 37 0
-743 -108 0
743 108 0
-744 -28 0
744 28 0
-745 -111 0
745 111 0
-746 -114 0
746 114 0
-747 -117 0
747 117 0
-748 -40 0
748 40 0
-749 -120 0
749 120 0
-750 -123 0
750 123 0
-751 -42 0
751 42 0
-752 -126 0
752 126 0
-753 -129 0
753 129 0
-754 -45 0
754 45 0
-755 -132 0
755 132 0
-756 -31 0
756 31 0
-757 -135 0
757 135 0
-758 -138 0
758 138 0
-759 -11 0
759 11 0
-760 -141 0
760 141 0
-761 -144 0
761 144 0
-762 -147 0
762 147 0
-763 -44 0
763 44 0
-764 -41 0
764 41 0
-765 -150 0
765 150 0
-766 -153 0
766 153 0
-767 -156 0
767 156 0
-768 -159 0
768 159 0
-769 -162 0
769 162 0
-770 -165 0
770 165 0
-771 -168 0
771 168 0
-772 -39 0
772 39 0
-773 -171 0
773 171 0
-774 -47 0
774 47 0
-775 -174 0
775 174 0
-776 -32 0
776 32 0
-777 -177 0
777 177 0
-778 -180 0
778 180 0
-779 -183 0
779 183 0
-780 -43 0
780 43 0
-781 -186 0
781 186 0
-782 -23 0
782 23 0
-783 -189 0
783 189 0
-784 -192 0
784 192 0
-785 -195 0
785 195 0
-786 -48 0
786 48 0
-787 -198 0
787 198 0
-788 -201 0
788 201 0
-789 -204 0
789 204 0
-790 -207 0
790 207 0
-791 -210 0
791 210 0
-792 -49 0
792 49 0
-793 -213 0
793 213 0
-794 -46 0
794 46 0
-795 -216 0
795 216 0
-796 -219 0
796 219 0
-797 -222 0
797 222 0
-798 -225 0
798 225 0
-799 -228 0
799 228 0
-800 -231 0
800 231 0
-801 -234 0
801 234 0
-802 -35 0
802 35 0
-803 -237 0
803 237 0
-804 -7 0
804 7 0
-805 -240 0
805 240 0
-806 -243 0
806 243 0
-807 -246 0
807 246 0
-808 -249 0
808 249 0
-809 -252 0
809 252 0
-810 -255 0
810 255 0
-811 -258 0
811 258 0
-812 -261 0
812 261 0
-813 -18 0
813 18 0
-814 -264 0
814 264 0
-815 -267 0
815 267 0
-816 -270 0
816 270 0
-817 -273 0
817 273 0
-818 -276 0
818 276 0
-819 -279 0
819 279 0
-820 -282 0
820 282 0
-821 -285 0
821 285 0
-822 -288 0
822 288 0
-823 -291 0
823 291 0
-824 -293 0
824 293 0
-825 -296 0
825 296 0
-826 -299 0
826 299 0
-827 -302 0
827 302 0
-828 -305 0
828 305 0
-829 -308 0
829 308 0
-830 -311 0
830 311 0
-831 -314 0
831 314 0
-832 -317 0
832 317 0
-833 -320 0
833 320 0
-834 -323 0
834 323 0
-835 -325 0
835 325 0
-836 -50 0
836 50 0
-837 -328 0
837 328 0
-838 -331 0
838 331 0
-839 -334 0
839 334 0
-840 -336 0
840 336 0
-841 -339 0
841 339 0
-842 -342 0
842 342 0
-843 -345 0
843 345 0
-844 -348 0
844 348 0
-845 -351 0
845 351 0
-846 -38 0
846 38 0
-847 -354 0
847 354 0
-848 -357 0
848 357 0
-849 -360 0
849 360 0
-850 -363 0
850 363 0
-851 -366 0
851 366 0
-852 -369 0
852 369 0
-853 -372 0
853 372 0
-854 -375 0
854 375 0
-855 -378 0
855 378 0
-856 -381 0
856 381 0
-857 -384 0
857 384 0
-858 -387 0
858 387 0
-859 -390 0
859 390 0
-860 -393 0
860 393 0
-861 -396 0
861 396 0
-862 -399 0
862 399 0
-863 -29 0
863 29 0
-864 -402 0
864 402 0
-865 -405 0
865 405 0
-866 -408 0
866 408 0
-867 -411 0
867 411 0
-868 -27 0
868 27 0
-869 -414 0
869 414 0
-870 -417 0
870 417 0
-871 -420 0
871 420 0
-872 -423 0
872 423 0
-873 -426 0
873 426 0
-874 -429 0
874 429 0
-875 -432 0
875 432 0
-876 -435 0
876 435 0
-877 -438 0
877 438 0
-878 -441 0
878 441 0
-879 -444 0
879 444 0
-880 -447 0
880 447 0
-881 -450 0
881 450 0
-882 -453 0
882 453 0
-883 -456 0
883 456 0
-884 -459 0
884 459 0
-885 -462 0
885 462 0
-886 -465 0
886 465 0
-887 -468 0
887 468 0
-888 -471 0
888 471 0
-889 -474 0
889 474 0
-890 -477 0
890 477 0
-891 -480 0
891 480 0
-892 -483 0
892 483 0
-893 -486 0
893 486 0
-894 -489 0
894 489 0
-895 -492 0
895 492 0
-896 -495 0
896 495 0
-897 -498 0
897 498 0
-898 -501 0
898 501 0
-899 -504 0
899 504 0
-900 -507 0
900 507 0
-901 -509 0
901 509 0
-902 -512 0
902 512 0
-903 -515 0
903 515 0
-904 -518 0
904 518 0
-905 -521 0
905 521 0
-906 -524 0
906 524 0
-907 -527 0
907 527 0
-908 -530 0
908 530 0
-909 -533 0
909 533 0
-910 -536 0
910 536 0
-911 -538 0
911 538 0
-912 -541 0
912 541 0
-913 -544 0
913 544 0
-914 -547 0
914 547 0
-915 -550 0
915 550 0
-916 -553 0
916 553 0
-917 -556 0
917 556 0
-918 -559 0
918 559 0
-919 -562 0
919 562 0
-920 -565 0
920 565 0
-921 -568 0
921 568 0
-922 -571 0
922 571 0
-923 -574 0
923 574 0
-924 -577 0
924 577 0
-925 -580 0
925 580 0
-926 -583 0
926 583 0
-927 -586 0
927 586 0
-928 -589 0
928 589 0
-929 -592 0
929 592 0
-930 -595 0
930 595 0
-931 -598 0
931 598 0
-932 -601 0
932 601 0
-933 -604 0
933 604 0
-934 -607 0
934 607 0
-935 -609 0
935 609 0
-936 -612 0
936 612 0
-937 -615 0
937 615 0
-938 -618 0
938 618 0
-939 -621 0
939 621 0
-940 -623 0
940 623 0
-941 -626 0
941 626 0
-942 -629 0
942 629 0
-943 -632 0
943 632 0
-944 -635 0
944 635 0
-945 -638 0
945 638 0
-946 -641 0
946 641 0
-947 -644 0
947 644 0
-948 -647 0
948 647 0
-949 -650 0
949 650 0
-950 -653 0
950 653 0
-951 -656 0
951 656 0
-952 -659 0
952 659 0
-953 -662 0
953 662 0
-954 -665 0
954 665 0
-955 -668 0
955 668 0
-956 -671 0
956 671 0
-957 -674 0
957 674 0
-958 -677 0
958 677 0
-959 -680 0
959 680 0
-960 -683 0
960 683 0
-961 -686 0
961 686 0
-962 -689 0
962 689 0
-963 -692 0
963 692 0
-964 -695 0
964 695 0
696 0
